NAME: tsp20-36
TYPE: TSP
DIMENSION: 20
EDGE_WEIGHT_TYPE: EUC_2D
NODE_COORD_SECTION
0 45 14
1 56 94
2 97 12
3 96 4
4 33 66
5 72 71
6 14 6
7 0 91
8 38 3
9 18 48
10 44 94
11 0 30
12 3 42
13 87 95
14 46 18
15 35 2
16 51 97
17 45 22
18 91 1
19 88 24
EOF